column=9;
row=9;
left=[0, 2, 4, 0, 0, 0, 0, 1, 0];
right=[0, 3, 0, 0, 0, 0, 0, 0, 0];
top=[5, 0, 0, 0, 3, 0, 5, 2, 0];
bottom=[0, 0, 4, 0, 3, 0, 1, 0, 0];
Board=[|0,0,0,0,0,9,0,0,0|5,4,0,0,8,0,0,0,0|0,6,0,0,1,0,0,9,0|0,0,0,0,3,8,0,0,0|0,0,0,1,4,0,0,2,3|0,0,0,5,6,2,0,4,9|0,3,0,6,0,1,0,5,8|0,5,1,8,7,4,3,6,2|0,8,0,3,2,0,0,0,0|]